1059320
0 8 65131
8 5 47658
5 35 22446
35 28 16895
28 37 745
37 22 7449
22 24 11530
24 33 30137
33 38 31546
38 29 6375
29 19 17244
19 31 24202
31 4 3290
4 36 37207
36 25 14546
25 32 15458
32 11 3967
11 30 43482
30 27 12751
27 12 6411
12 6 23211
6 20 17005
20 9 5744
9 10 5506
10 7 17581
7 14 26227
14 15 36816
15 16 43849
16 13 42391
13 2 30026
2 34 124190
34 1 10541
1 26 15288
26 39 17541
39 18 13572
18 3 26533
3 21 23621
21 23 45980
23 17 89851
17 0 25377
